c This is QMaxSAT 2017 based on 14.07
c This is Glucose 3.0
c This is MiniSat 2.2.0
c WARNING: for repeatability, setting FPU to use double precision
c card = mrwto, comp = 0, pmodel = 0, narr = 5, mct = 24, verb = 0
cr firstCPXsol 0 0 0
c top = 81479
c |  Number of variables:    14518                                            |
c |  Number of clauses:      3131092                                          |
c |  Weight of hard clauses: 81479                                            |
c |  Number of soft clauses: 2760                                             |
c |  Number of unit soft clauses: 2760                                        |
c |  Maximum Cardinality (by unit): 407390       (407390      )               |
c last restart ## conflicts  :  27 10341 
o 1178 | cpuTime 0.243401 s
c Sum of weights = 81478
c A number of soft clauses remained = 552
c MRWTO encoding for Pseudo-Boolean Constraints
c sizeMax=1178
c No.0 Divisor=11	generated by pow1
c No.1 Divisor=11	generated by pow1
c No.2 Divisor=11	generated by pow1
c p0= 11	p1= 11	p2= 11	
c number of digits = 4
c linkingVar[0].size = 11, linkingVar[1].size = 11, linkingVar[2].size = 10, linkingVar[3].size = 1, 
c Pseudo-Boolean Constraints: 11627 variables and 104135 clauses
c Sum of weights = 81478
c A number of soft clauses remained = 552
c MRWTO encoding for Pseudo-Boolean Constraints
c sizeMax=1178
c No.0 Divisor=11	generated by pow1
c No.1 Divisor=11	generated by pow1
c No.2 Divisor=11	generated by pow1
c p0= 11	p1= 11	p2= 11	
c number of digits = 4
c linkingVar[0].size = 11, linkingVar[1].size = 11, linkingVar[2].size = 10, linkingVar[3].size = 1, 
c Pseudo-Boolean Constraints: 11627 variables and 104135 clauses
c Sum of weights = 81478
c A number of soft clauses remained = 552
c MRWTO encoding for Pseudo-Boolean Constraints
c sizeMax=1178
c No.0 Divisor=11	generated by pow1
c No.1 Divisor=11	generated by pow1
c No.2 Divisor=11	generated by pow1
c p0= 11	p1= 11	p2= 11	
c number of digits = 4
c linkingVar[0].size = 11, linkingVar[1].size = 11, linkingVar[2].size = 10, linkingVar[3].size = 1, 
c Pseudo-Boolean Constraints: 11627 variables and 104135 clauses
c Sum of weights = 81478
c A number of soft clauses remained = 552
c MRWTO encoding for Pseudo-Boolean Constraints
c sizeMax=1178
c No.0 Divisor=11	generated by pow1
c No.1 Divisor=11	generated by pow1
c No.2 Divisor=11	generated by pow1
c p0= 11	p1= 11	p2= 11	
c number of digits = 4
c linkingVar[0].size = 11, linkingVar[1].size = 11, linkingVar[2].size = 10, linkingVar[3].size = 1, 
c Pseudo-Boolean Constraints: 11627 variables and 104135 clauses
c Sum of weights = 81478
c A number of soft clauses remained = 552
c MRWTO encoding for Pseudo-Boolean Constraints
c sizeMax=1178
c No.0 Divisor=11	generated by pow1
c No.1 Divisor=11	generated by pow1
c No.2 Divisor=11	generated by pow1
c p0= 11	p1= 11	p2= 11	
c number of digits = 4
c linkingVar[0].size = 11, linkingVar[1].size = 11, linkingVar[2].size = 10, linkingVar[3].size = 1, 
c Pseudo-Boolean Constraints: 11627 variables and 104135 clauses
c last restart ## conflicts  :  53 12412 
o 1163 | cpuTime 0.324412 s
c last restart ## conflicts  :  169 9204 
o 1102 | cpuTime 0.41578 s
c last restart ## conflicts  :  274 7580 
o 1101 | cpuTime 0.566613 s
c last restart ## conflicts  :  296 6906 
o 928 | cpuTime 0.751395 s
c last restart ## conflicts  :  105 14819 
o 902 | cpuTime 0.793727 s
c last restart ## conflicts  :  365 6074 
o 845 | cpuTime 1.43382 s
c last restart ## conflicts  :  30 13756 
o 814 | cpuTime 1.46839 s
c last restart ## conflicts  :  73 5838 
o 811 | cpuTime 2.82706 s
c last restart ## conflicts  :  596 5967 
o 810 | cpuTime 4.16425 s
c last restart ## conflicts  :  39 18022 
o 789 | cpuTime 4.18257 s
c last restart ## conflicts  :  439 6112 
o 761 | cpuTime 16.1619 s
c last restart ## conflicts  :  1472 5389 
o 748 | cpuTime 19.5197 s
c last restart ## conflicts  :  111 6033 
o 723 | cpuTime 23.4988 s
c last restart ## conflicts  :  499 5866 
o 721 | cpuTime 34.1917 s
c last restart ## conflicts  :  1413 6179 
o 691 | cpuTime 35.1689 s
c last restart ## conflicts  :  46 14089 
o 687 | cpuTime 35.2014 s
c last restart ## conflicts  :  1402 4611 
o 684 | cpuTime 95.0253 s
c last restart ## conflicts  :  3 6959 
o 681 | cpuTime 98.3566 s
c last restart ## conflicts  :  255 4955 
o 676 | cpuTime 211.928 s
c last restart ## conflicts  :  570 6451 
o 656 | cpuTime 228.303 s
c last restart ## conflicts  :  79 8086 
o 651 | cpuTime 346.858 s
c last restart ## conflicts  :  831 7526 
o 650 | cpuTime 392.274 s
c last restart ## conflicts  :  235 6905 
o 645 | cpuTime 422.821 s
c last restart ## conflicts  :  324 6364 
o 642 | cpuTime 863.762 s
c last restart ## conflicts  :  380 6345 
o 639 | cpuTime 1847.96 s
c last restart ## conflicts  :  404 5833 
o 636 | cpuTime 2906.1 s
c last restart ## conflicts  :  951 8474 
o 629 | cpuTime 3290.27 s
s UNKNOWN
c Search is stopped by a limit (maybe time-limit)
cr positiVarArr: [ | 6@1(1->6) | 56@1(3->8) | 144@1(6->24) | 184@1(8->16) | 243@1(11->3) | 361@1(16->1) | 502@1(21->22) | 515@1(22->11) | 573@1(24->21) | 583@2(1->7) | 673@2(5->1) | 738@2(7->18) | 797@2(10->5) | 970@2(17->10) | 1001@2(18->17) | 1156@3(1->4) | 1196@3(2->20) | 1226@3(4->2) | 1417@3(12->1) | 1620@3(20->12) | 1742@4(1->14) | 1943@4(9->23) | 2025@4(13->9) | 2053@4(14->13) | 2257@4(23->1) | 2319@5(1->15) | 2659@5(15->19) | 2737@5(19->1) | ]
cr the 1-th chain: [ 1->6->24->21->22->11->3->8->16->1 ] (#non-depot=8) {#cumul.=9}
cr the 2-th chain: [ 1->7->18->17->10->5->1 ] (#non-depot=5) {#cumul.=14}
cr the 3-th chain: [ 1->4->2->20->12->1 ] (#non-depot=4) {#cumul.=18}
cr the 4-th chain: [ 1->14->13->9->23->1 ] (#non-depot=4) {#cumul.=22}
cr the 5-th chain: [ 1->15->19->1 ] (#non-depot=2) {#cumul.=24}
c Latest Answer = 0 by 28 loops
c restarts              : 105426
c conflicts             : 15583313       (4340 /sec)
c decisions             : 117809757      (0.00 % random) (32811 /sec)
c propagations          : 14200907143    (3955063 /sec)
c conflict literals     : 3574418582     (23.10 % deleted)
c Memory used           : 873.00 MB
c CPU time              : 3590.56 s
